language Essence 1.3

letting class be
        function(1 --> 2, 2 --> 6, 3 --> 4, 4 --> 4, 5 --> 3, 6 --> 3, 7 --> 4, 8 --> 6, 9 --> 4, 10 --> 7, 11 --> 2,
                 12 --> 9, 13 --> 1, 14 --> 1, 15 --> 9, 16 --> 9, 17 --> 8, 18 --> 9, 19 --> 4, 20 --> 9, 21 --> 9,
                 22 --> 8, 23 --> 8, 24 --> 7, 25 --> 5, 26 --> 4, 27 --> 8)
letting deck_length be 28
letting deck_width be 69
letting length be
        function(1 --> 27, 2 --> 2, 3 --> 23, 4 --> 17, 5 --> 20, 6 --> 4, 7 --> 16, 8 --> 22, 9 --> 2, 10 --> 24,
                 11 --> 9, 12 --> 24, 13 --> 28, 14 --> 2, 15 --> 13, 16 --> 20, 17 --> 6, 18 --> 2, 19 --> 13,
                 20 --> 20, 21 --> 10, 22 --> 24, 23 --> 9, 24 --> 26, 25 --> 11, 26 --> 28, 27 --> 23)
letting n_classes be 9
letting n_containers be 27
letting separation be function()
letting width be
        function(1 --> 11, 2 --> 1, 3 --> 4, 4 --> 1, 5 --> 1, 6 --> 1, 7 --> 1, 8 --> 3, 9 --> 1, 10 --> 1, 11 --> 1,
                 12 --> 1, 13 --> 26, 14 --> 2, 15 --> 1, 16 --> 1, 17 --> 1, 18 --> 1, 19 --> 1, 20 --> 1, 21 --> 1,
                 22 --> 1, 23 --> 2, 24 --> 2, 25 --> 1, 26 --> 1, 27 --> 1)
